unknown
(model
; cardinality of BoundSet is 1
(declare-sort BoundSet 0)
; rep: @uc_BoundSet_0
; cardinality of UnboundSet is 1
(declare-sort UnboundSet 0)
(declare-fun groundTerm_2 () UnboundSet)
(define-fun AreInPineIslandBay ((BOUND_VARIABLE_418 BoundSet)) Bool true)
(define-fun AreInAntarctica ((BOUND_VARIABLE_418 BoundSet)) Bool true)
(define-fun AreLargest ((BOUND_VARIABLE_418 BoundSet)) Bool true)
(define-fun AreFastestMelting ((BOUND_VARIABLE_418 BoundSet)) Bool true)
(define-fun IsCoastal ((BOUND_VARIABLE_418 BoundSet)) Bool false)
(define-fun IsOnPlanet ((BOUND_VARIABLE_418 BoundSet)) Bool false)
(define-fun WouldBeSubmerged ((BOUND_VARIABLE_418 BoundSet)) Bool false)
)
sat
(model
; cardinality of BoundSet is 1
(declare-sort BoundSet 0)
; rep: @uc_BoundSet_0
; cardinality of UnboundSet is 1
(declare-sort UnboundSet 0)
(declare-fun groundTerm_4 () UnboundSet)
(define-fun AreInPineIslandBay ((BOUND_VARIABLE_468 BoundSet)) Bool true)
(define-fun AreInAntarctica ((BOUND_VARIABLE_468 BoundSet)) Bool true)
(define-fun AreLargest ((BOUND_VARIABLE_468 BoundSet)) Bool true)
(define-fun AreFastestMelting ((BOUND_VARIABLE_468 BoundSet)) Bool true)
(define-fun IsCoastal ((BOUND_VARIABLE_468 BoundSet)) Bool false)
(define-fun IsOnPlanet ((BOUND_VARIABLE_468 BoundSet)) Bool true)
(define-fun WouldBeSubmerged ((BOUND_VARIABLE_468 BoundSet)) Bool true)
)
